Read MPS format model from file dat/rmp/4node-base_32768_10.mps
Reading time = 1.22 seconds
: 32828 rows, 98450 columns, 3235852 nonzeros
Gurobi Optimizer version 9.0.0 build v9.0.0rc2 (linux64)
Optimize a model with 32828 rows, 98450 columns and 3235852 nonzeros
Model fingerprint: 0x8673aa7d
Coefficient statistics:
  Matrix range     [2e-04, 2e+01]
  Objective range  [9e-03, 1e+04]
  Bounds range     [0e+00, 0e+00]
  RHS range        [1e+00, 8e+01]
Ordering time: 0.04s

Barrier statistics:
 AA' NZ     : 1.500e+06
 Factor NZ  : 1.873e+06 (roughly 70 MBytes of memory)
 Factor Ops : 1.201e+08 (less than 1 second per iteration)
 Threads    : 1

                  Objective                Residual
Iter       Primal          Dual         Primal    Dual     Compl     Time
   0   2.32899889e+07  0.00000000e+00  3.35e+02 2.40e+02  4.96e+04     1s
   1   4.52886385e+05 -1.65233587e+08  5.99e+00 9.27e+02  2.77e+03     1s
   2   6.63608980e+03 -3.35713988e+07  1.48e-10 1.16e+01  3.45e+02     1s
   3   1.19869129e+03 -6.30210955e+06  1.41e-11 1.55e+00  6.46e+01     2s
   4   2.45340269e+01 -9.05936943e+05  1.05e-10 1.76e-01  9.26e+00     2s
   5  -2.14931403e+02 -2.58986247e+04  6.38e-11 2.73e-03  2.62e-01     2s
   6  -2.30756581e+02 -6.47898018e+02  3.33e-08 2.51e-05  4.25e-03     2s
   7  -2.92242912e+02 -4.74441652e+02  1.97e-07 4.37e-06  1.85e-03     3s
   8  -3.10680641e+02 -4.14944920e+02  3.69e-07 9.36e-07  1.06e-03     3s
   9  -3.12381605e+02 -3.82164897e+02  1.79e-06 4.08e-07  7.09e-04     3s
  10  -3.30484561e+02 -3.68060794e+02  2.29e-06 1.87e-07  3.82e-04     3s
  11  -3.38511462e+02 -3.61567910e+02  6.35e-06 4.50e-08  2.34e-04     4s
  12  -3.43572030e+02 -3.56683127e+02  2.58e-05 2.01e-08  1.33e-04     4s
  13  -3.47598184e+02 -3.54797027e+02  2.59e-05 9.33e-09  7.31e-05     4s
  14  -3.49597294e+02 -3.53143843e+02  1.40e-05 1.41e-09  3.60e-05     5s
  15  -3.49614953e+02 -3.52894528e+02  2.72e-05 6.67e-10  3.33e-05     6s
  16  -3.49904894e+02 -3.52658514e+02  2.78e-05 2.67e-10  2.80e-05     7s
  17  -3.49908504e+02 -3.52508274e+02  5.27e-05 4.58e-10  2.64e-05     8s
  18  -3.49978831e+02 -3.52430644e+02  9.83e-05 1.28e-10  2.49e-05     8s
  19  -3.49978259e+02 -3.52412556e+02  2.44e-05 7.98e-11  2.47e-05     9s
  20  -3.49978926e+02 -3.52396180e+02  3.15e-05 3.10e-11  2.46e-05     9s
  21  -3.49980157e+02 -3.52392716e+02  5.10e-05 5.02e-11  2.45e-05    10s
  22  -3.49980456e+02 -3.52386832e+02  5.84e-05 3.17e-11  2.44e-05    10s
  23  -3.49980557e+02 -3.52393164e+02  5.87e-05 1.37e-10  2.45e-05    10s
  24  -3.49983305e+02 -3.52392471e+02  9.00e-05 1.64e-10  2.45e-05    11s
  25  -3.49994011e+02 -3.52385203e+02  1.29e-04 2.38e-11  2.43e-05    11s
  26  -3.50007750e+02 -3.52376874e+02  2.48e-04 1.22e-10  2.41e-05    12s
  27  -3.50008052e+02 -3.52375565e+02  1.82e-04 1.46e-11  2.41e-05    12s
  28  -3.50016738e+02 -3.52370630e+02  2.90e-04 7.12e-11  2.39e-05    12s
  29  -3.50042413e+02 -3.52369432e+02  4.67e-04 9.66e-11  2.37e-05    13s
  30  -3.50048045e+02 -3.52368864e+02  6.60e-04 7.52e-11  2.37e-05    13s
  31  -3.50064779e+02 -3.52369133e+02  1.44e-03 7.46e-11  2.36e-05    13s
  32  -3.50063516e+02 -3.52368206e+02  8.37e-04 4.54e-11  2.35e-05    14s
  33  -3.50088995e+02 -3.52367254e+02  1.30e-03 3.67e-12  2.33e-05    14s
  34  -3.50125105e+02 -3.52368141e+02  1.58e-03 7.28e-12  2.29e-05    14s
  35  -3.50212035e+02 -3.52368702e+02  2.56e-03 1.60e-11  2.23e-05    15s
  36  -3.50276806e+02 -3.52369116e+02  4.45e-03 8.73e-11  2.18e-05    15s
  37  -3.50433369e+02 -3.52364050e+02  2.92e-03 1.15e-10  2.00e-05    15s
  38  -3.50502569e+02 -3.52364476e+02  3.55e-03 9.27e-11  1.94e-05    15s
  39  -3.50678779e+02 -3.52358117e+02  7.35e-03 9.55e-11  1.81e-05    16s
  40  -3.50746526e+02 -3.52356633e+02  8.53e-03 8.61e-11  1.73e-05    16s
  41  -3.50922027e+02 -3.52358980e+02  1.03e-02 4.52e-11  1.59e-05    16s
  42  -3.50991459e+02 -3.52356467e+02  7.80e-03 4.18e-11  1.47e-05    17s
  43  -3.51127517e+02 -3.52356630e+02  7.74e-03 5.09e-11  1.32e-05    17s
  44  -3.51184977e+02 -3.52356894e+02  9.72e-03 4.93e-11  1.28e-05    17s
  45  -3.51202457e+02 -3.52357038e+02  8.81e-03 4.79e-11  1.24e-05    18s
  46  -3.51286725e+02 -3.52354416e+02  8.49e-03 3.97e-11  1.11e-05    18s
  47  -3.51326220e+02 -3.52353788e+02  1.04e-02 3.69e-11  1.07e-05    18s
  48  -3.51344697e+02 -3.52352757e+02  7.26e-03 3.42e-11  1.02e-05    18s
  49  -3.51353166e+02 -3.52351949e+02  9.00e-03 3.19e-11  9.78e-06    19s
  50  -3.51374480e+02 -3.52352114e+02  1.04e-02 3.14e-11  9.46e-06    19s
  51  -3.51385589e+02 -3.52351666e+02  1.04e-02 3.09e-11  9.33e-06    19s
  52  -3.51385755e+02 -3.52351883e+02  1.19e-02 2.91e-11  9.01e-06    20s
  53  -3.51469250e+02 -3.52355986e+02  1.42e-02 1.91e-11  7.94e-06    20s
  54  -3.51586112e+02 -3.52356446e+02  1.28e-02 1.72e-11  7.14e-06    20s
  55  -3.51599978e+02 -3.52355502e+02  1.22e-02 1.66e-11  7.10e-06    20s
  56  -3.51621487e+02 -3.52355458e+02  1.20e-02 2.91e-11  6.96e-06    21s
  57  -3.51647164e+02 -3.52354879e+02  1.09e-02 1.59e-11  6.86e-06    21s
  58  -3.51690954e+02 -3.52355046e+02  1.10e-02 1.54e-11  6.51e-06    21s
  59  -3.51761957e+02 -3.52354476e+02  1.15e-02 1.46e-11  5.97e-06    22s
  60  -3.51766965e+02 -3.52354423e+02  1.11e-02 1.46e-11  5.97e-06    22s
  61  -3.51764195e+02 -3.52354493e+02  1.14e-02 1.46e-11  5.95e-06    22s
  62  -3.51769345e+02 -3.52354120e+02  1.09e-02 1.46e-11  5.89e-06    22s
  63  -3.51779375e+02 -3.52352832e+02  8.71e-03 1.46e-11  5.67e-06    23s
  64  -3.52087399e+02 -3.52352866e+02  1.37e-02 1.46e-11  3.79e-06    23s
  65  -3.52084194e+02 -3.52352666e+02  1.35e-02 1.46e-11  3.77e-06    24s
  66  -3.52139148e+02 -3.52352277e+02  1.47e-02 1.46e-11  3.57e-06    24s
  67  -3.52151654e+02 -3.52352245e+02  1.41e-02 1.46e-11  3.42e-06    24s
  68  -3.52168204e+02 -3.52352177e+02  1.45e-02 1.46e-11  3.32e-06    25s
  69  -3.52183747e+02 -3.52351301e+02  1.45e-02 1.46e-11  3.18e-06    25s
  70  -3.52187171e+02 -3.52349638e+02  1.43e-02 1.46e-11  3.13e-06    25s
  71  -3.52200634e+02 -3.52347720e+02  1.40e-02 1.46e-11  2.95e-06    26s
  72  -3.52202056e+02 -3.52347508e+02  1.38e-02 1.46e-11  2.87e-06    26s
  73  -3.52188088e+02 -3.52346627e+02  1.21e-02 1.46e-11  2.63e-06    26s
  74  -3.52218217e+02 -3.52346157e+02  1.18e-02 1.46e-11  2.38e-06    27s
  75  -3.52234194e+02 -3.52346179e+02  1.20e-02 1.46e-11  2.36e-06    27s
  76  -3.52245240e+02 -3.52346323e+02  1.22e-02 1.46e-11  2.26e-06    27s
  77  -3.52268671e+02 -3.52346608e+02  1.21e-02 1.46e-11  2.05e-06    28s
  78  -3.52276160e+02 -3.52346653e+02  1.22e-02 1.46e-11  2.05e-06    28s
  79  -3.52275385e+02 -3.52345922e+02  1.21e-02 1.46e-11  2.02e-06    28s
  80  -3.52275895e+02 -3.52346012e+02  1.22e-02 7.28e-12  1.98e-06    29s
  81  -3.52291090e+02 -3.52346411e+02  1.27e-02 1.46e-11  1.86e-06    29s
  82  -3.52309516e+02 -3.52346295e+02  1.26e-02 1.46e-11  1.77e-06    29s
  83  -3.52300086e+02 -3.52345281e+02  1.26e-02 1.46e-11  1.76e-06    30s
  84  -3.52296001e+02 -3.52345236e+02  1.26e-02 1.46e-11  1.76e-06    30s
  85  -3.52343355e+02 -3.52345020e+02  1.27e-02 1.46e-11  1.49e-06    30s
  86  -3.52341328e+02 -3.52345296e+02  1.26e-02 1.46e-11  1.49e-06    31s
  87  -3.52334168e+02 -3.52345898e+02  1.12e-02 1.46e-11  1.28e-06    31s
  88  -3.52334996e+02 -3.52344597e+02  1.08e-02 3.52e-12  1.23e-06    32s
  89  -3.52340867e+02 -3.52343927e+02  1.16e-02 1.46e-11  1.21e-06    32s
  90  -3.52375263e+02 -3.52344550e+02  1.28e-02 1.46e-11  1.17e-06    33s
  91  -3.52392717e+02 -3.52344321e+02  1.37e-02 1.46e-11  1.12e-06    33s
  92  -3.52376393e+02 -3.52344017e+02  1.30e-02 1.46e-11  1.06e-06    33s
  93  -3.52400447e+02 -3.52342267e+02  1.45e-02 1.46e-11  9.41e-07    34s
  94  -3.52390509e+02 -3.52342130e+02  1.37e-02 1.46e-11  8.77e-07    34s
  95  -3.52390318e+02 -3.52341602e+02  1.37e-02 1.46e-11  8.56e-07    34s
  96  -3.52395457e+02 -3.52341409e+02  1.34e-02 1.46e-11  8.24e-07    35s
  97  -3.52395830e+02 -3.52341401e+02  1.34e-02 1.46e-11  8.24e-07    35s
  98  -3.52395715e+02 -3.52341452e+02  1.34e-02 1.46e-11  8.22e-07    35s
  99  -3.52395217e+02 -3.52341074e+02  1.37e-02 1.98e-12  7.74e-07    36s
 100  -3.52391413e+02 -3.52340942e+02  1.34e-02 1.46e-11  7.69e-07    36s
 101  -3.52380231e+02 -3.52340873e+02  1.34e-02 1.46e-11  7.69e-07    37s
 102  -3.52379702e+02 -3.52340559e+02  1.29e-02 7.28e-12  7.42e-07    37s
 103  -3.52383427e+02 -3.52340528e+02  1.31e-02 7.28e-12  7.34e-07    37s
 104  -3.52384755e+02 -3.52340069e+02  1.25e-02 7.28e-12  7.26e-07    38s
 105  -3.52397856e+02 -3.52340251e+02  1.35e-02 1.46e-11  6.93e-07    38s
 106  -3.52416964e+02 -3.52340438e+02  1.37e-02 1.46e-11  6.52e-07    38s
 107  -3.52402661e+02 -3.52340388e+02  1.31e-02 1.46e-11  5.81e-07    39s
 108  -3.52404422e+02 -3.52340397e+02  1.34e-02 1.46e-11  5.68e-07    39s
 109  -3.52394760e+02 -3.52340292e+02  1.35e-02 1.46e-11  5.55e-07    39s
 110  -3.52392990e+02 -3.52340130e+02  1.33e-02 1.46e-11  5.40e-07    40s
 111  -3.52393966e+02 -3.52340163e+02  1.34e-02 1.46e-11  5.40e-07    40s
 112  -3.52410819e+02 -3.52340349e+02  1.39e-02 1.46e-11  5.31e-07    40s
 113  -3.52407229e+02 -3.52340427e+02  1.38e-02 1.46e-11  5.31e-07    40s
 114  -3.52402487e+02 -3.52340591e+02  1.35e-02 7.28e-12  5.30e-07    41s
 115  -3.52424839e+02 -3.52340689e+02  1.39e-02 1.46e-11  5.13e-07    41s
 116  -3.52418859e+02 -3.52340596e+02  1.34e-02 1.46e-11  5.05e-07    41s
 117  -3.52455434e+02 -3.52340660e+02  1.27e-02 7.28e-12  4.60e-07    42s
 118  -3.52461004e+02 -3.52340434e+02  1.28e-02 7.28e-12  4.59e-07    42s
 119  -3.52427405e+02 -3.52340595e+02  1.13e-02 1.46e-11  4.39e-07    42s
 120  -3.52426255e+02 -3.52340413e+02  1.13e-02 1.15e-12  4.31e-07    43s
 121  -3.52431900e+02 -3.52340613e+02  1.13e-02 1.13e-12  4.24e-07    43s
 122  -3.52429037e+02 -3.52339682e+02  1.09e-02 7.28e-12  4.07e-07    44s
 123  -3.52414905e+02 -3.52339461e+02  9.77e-03 7.28e-12  3.52e-07    44s
 124  -3.52432653e+02 -3.52339560e+02  9.83e-03 1.82e-12  3.29e-07    44s
 125  -3.52425247e+02 -3.52339335e+02  9.65e-03 1.46e-11  3.19e-07    44s
 126  -3.52425713e+02 -3.52339367e+02  9.73e-03 1.46e-11  3.13e-07    45s
 127  -3.52412838e+02 -3.52339335e+02  9.53e-03 1.46e-11  2.95e-07    45s
 128  -3.52409798e+02 -3.52339369e+02  9.65e-03 1.46e-11  2.88e-07    45s
 129  -3.52406847e+02 -3.52339244e+02  9.61e-03 1.46e-11  2.88e-07    46s
 130  -3.52403043e+02 -3.52339193e+02  9.32e-03 1.46e-11  2.87e-07    46s
 131  -3.52409849e+02 -3.52339163e+02  8.75e-03 1.46e-11  2.55e-07    46s
 132  -3.52417239e+02 -3.52339145e+02  9.02e-03 7.28e-12  2.55e-07    46s
 133  -3.52409274e+02 -3.52338892e+02  8.66e-03 1.46e-11  2.40e-07    47s
 134  -3.52405021e+02 -3.52338871e+02  8.59e-03 1.46e-11  2.35e-07    48s
 135  -3.52425550e+02 -3.52338889e+02  1.01e-02 1.46e-11  2.10e-07    48s
 136  -3.52421151e+02 -3.52338364e+02  9.63e-03 1.46e-11  1.68e-07    49s
 137  -3.52426658e+02 -3.52338376e+02  9.62e-03 1.46e-11  1.68e-07    49s
 138  -3.52426276e+02 -3.52338279e+02  9.65e-03 1.46e-11  1.67e-07    49s
 139  -3.52435217e+02 -3.52338674e+02  1.02e-02 1.46e-11  1.57e-07    49s
 140  -3.52431960e+02 -3.52338575e+02  1.01e-02 4.06e-13  1.52e-07    50s
 141  -3.52432373e+02 -3.52338831e+02  1.10e-02 1.46e-11  1.39e-07    50s
 142  -3.52429650e+02 -3.52338821e+02  1.10e-02 7.28e-12  1.36e-07    50s
 143  -3.52429118e+02 -3.52338525e+02  1.09e-02 1.46e-11  1.33e-07    51s
 144  -3.52428427e+02 -3.52338489e+02  1.10e-02 1.46e-11  1.33e-07    51s
 145  -3.52424531e+02 -3.52338241e+02  1.09e-02 1.46e-11  1.31e-07    51s
 146  -3.52420774e+02 -3.52338490e+02  1.12e-02 1.46e-11  1.24e-07    52s
 147  -3.52423253e+02 -3.52338542e+02  1.11e-02 1.46e-11  1.24e-07    52s
 148  -3.52421301e+02 -3.52338538e+02  1.11e-02 1.46e-11  1.23e-07    52s
 149  -3.52422937e+02 -3.52338060e+02  1.09e-02 1.46e-11  1.24e-07    53s
 150  -3.52422595e+02 -3.52338219e+02  1.10e-02 1.46e-11  1.23e-07    53s
 151  -3.52426050e+02 -3.52339187e+02  1.10e-02 1.46e-11  1.22e-07    53s
 152  -3.52424487e+02 -3.52339297e+02  1.11e-02 1.46e-11  1.21e-07    54s
 153  -3.52422938e+02 -3.52339352e+02  1.12e-02 1.46e-11  1.19e-07    54s
 154  -3.52453819e+02 -3.52339663e+02  1.32e-02 2.31e-13  1.01e-07    54s
 155  -3.52468075e+02 -3.52339005e+02  1.38e-02 7.28e-12  9.88e-08    55s
 156  -3.52465628e+02 -3.52338812e+02  1.37e-02 7.28e-12  9.87e-08    55s
 157  -3.52458289e+02 -3.52338015e+02  1.35e-02 1.46e-11  9.87e-08    55s
 158  -3.52458306e+02 -3.52338099e+02  1.35e-02 7.28e-12  9.87e-08    55s
 159  -3.52454784e+02 -3.52337938e+02  1.30e-02 1.46e-11  9.53e-08    56s
 160  -3.52450464e+02 -3.52339092e+02  1.33e-02 7.28e-12  8.89e-08    56s
 161  -3.52448969e+02 -3.52338891e+02  1.32e-02 1.98e-13  8.89e-08    57s
 162  -3.52453946e+02 -3.52338912e+02  1.34e-02 1.46e-11  8.88e-08    57s
 163  -3.52452843e+02 -3.52338814e+02  1.33e-02 1.46e-11  8.78e-08    57s
 164  -3.52452752e+02 -3.52338679e+02  1.34e-02 1.46e-11  8.77e-08    58s
 165  -3.52458283e+02 -3.52338797e+02  1.36e-02 1.46e-11  8.68e-08    58s
 166  -3.52458775e+02 -3.52338748e+02  1.37e-02 1.46e-11  8.61e-08    58s
 167  -3.52464672e+02 -3.52338948e+02  1.35e-02 1.80e-13  8.44e-08    59s
 168  -3.52463718e+02 -3.52338709e+02  1.33e-02 1.46e-11  8.34e-08    59s
 169  -3.52463207e+02 -3.52338676e+02  1.33e-02 1.46e-11  8.34e-08    60s
 170  -3.52454368e+02 -3.52338634e+02  1.32e-02 1.46e-11  7.63e-08    60s
 171  -3.52446723e+02 -3.52338658e+02  1.31e-02 1.54e-13  7.63e-08    60s
 172  -3.52440352e+02 -3.52338634e+02  1.30e-02 1.54e-13  7.53e-08    60s
 173  -3.52439629e+02 -3.52338246e+02  1.29e-02 7.28e-12  7.45e-08    61s
 174  -3.52440649e+02 -3.52338553e+02  1.33e-02 1.46e-11  7.33e-08    61s
 175  -3.52447376e+02 -3.52338758e+02  1.38e-02 1.46e-11  6.72e-08    62s
 176  -3.52446931e+02 -3.52338752e+02  1.35e-02 1.46e-11  6.40e-08    62s
 177  -3.52444948e+02 -3.52338808e+02  1.35e-02 1.46e-11  6.09e-08    62s
 178  -3.52445722e+02 -3.52338856e+02  1.36e-02 1.46e-11  6.09e-08    62s
 179  -3.52443214e+02 -3.52338455e+02  1.32e-02 1.46e-11  5.87e-08    63s
 180  -3.52435635e+02 -3.52337954e+02  1.27e-02 7.28e-12  5.62e-08    63s
 181  -3.52427443e+02 -3.52337486e+02  1.23e-02 1.46e-11  5.30e-08    64s
 182  -3.52422050e+02 -3.52337353e+02  1.21e-02 1.46e-11  5.20e-08    64s
 183  -3.52424967e+02 -3.52337262e+02  1.22e-02 1.46e-11  5.08e-08    64s
 184  -3.52420626e+02 -3.52337234e+02  1.20e-02 1.46e-11  4.89e-08    65s
 185  -3.52418064e+02 -3.52337573e+02  1.16e-02 1.46e-11  4.44e-08    65s
 186  -3.52413607e+02 -3.52337332e+02  1.15e-02 1.46e-11  4.43e-08    65s
 187  -3.52414011e+02 -3.52337347e+02  1.16e-02 1.46e-11  4.42e-08    66s
 188  -3.52413358e+02 -3.52336802e+02  1.13e-02 1.46e-11  4.36e-08    66s
 189  -3.52414337e+02 -3.52337343e+02  1.14e-02 1.46e-11  4.34e-08    66s
 190  -3.52412184e+02 -3.52336719e+02  1.12e-02 1.46e-11  4.27e-08    67s
 191  -3.52407226e+02 -3.52336451e+02  1.08e-02 1.46e-11  4.01e-08    67s
 192  -3.52403461e+02 -3.52336281e+02  1.01e-02 1.46e-11  3.78e-08    68s
 193  -3.52391847e+02 -3.52336886e+02  9.46e-03 1.46e-11  3.47e-08    68s
 194  -3.52391534e+02 -3.52336870e+02  9.44e-03 1.46e-11  3.47e-08    68s
 195  -3.52391007e+02 -3.52336868e+02  9.41e-03 1.46e-11  3.44e-08    69s
 196  -3.52391688e+02 -3.52336885e+02  9.47e-03 1.46e-11  3.44e-08    69s
 197  -3.52390848e+02 -3.52336861e+02  9.43e-03 1.46e-11  3.44e-08    69s
 198  -3.52391231e+02 -3.52336464e+02  9.38e-03 1.46e-11  3.07e-08    70s
 199  -3.52389188e+02 -3.52336322e+02  9.31e-03 1.46e-11  3.05e-08    70s
 200  -3.52405322e+02 -3.52336457e+02  9.96e-03 1.46e-11  2.79e-08    71s
 201  -3.52405126e+02 -3.52336272e+02  9.84e-03 7.28e-12  2.74e-08    71s
 202  -3.52403407e+02 -3.52336072e+02  9.65e-03 4.82e-14  2.70e-08    71s
 203  -3.52401648e+02 -3.52335775e+02  9.60e-03 7.28e-12  2.63e-08    72s
 204  -3.52399144e+02 -3.52335655e+02  9.23e-03 7.28e-12  2.57e-08    72s
 205  -3.52399738e+02 -3.52335548e+02  9.21e-03 7.28e-12  2.58e-08    73s
 206  -3.52397856e+02 -3.52335372e+02  9.02e-03 1.46e-11  2.52e-08    73s
 207  -3.52397815e+02 -3.52335326e+02  9.02e-03 1.46e-11  2.52e-08    74s
 208  -3.52396011e+02 -3.52335314e+02  8.82e-03 1.46e-11  2.50e-08    74s
 209  -3.52399137e+02 -3.52335297e+02  9.12e-03 7.28e-12  2.42e-08    74s
 210  -3.52396056e+02 -3.52335358e+02  8.88e-03 1.46e-11  2.35e-08    75s
 211  -3.52395865e+02 -3.52335282e+02  8.86e-03 1.46e-11  2.34e-08    75s
 212  -3.52396438e+02 -3.52335113e+02  8.80e-03 1.46e-11  2.34e-08    75s
 213  -3.52395955e+02 -3.52335100e+02  8.70e-03 4.39e-14  2.34e-08    76s
 214  -3.52395287e+02 -3.52335103e+02  8.65e-03 1.82e-12  2.33e-08    76s

Barrier performed 214 iterations in 76.06 seconds
Sub-optimal termination - objective -3.49597294e+02

Solve time: 76.062831227
Barrier iterations: 214
